c clasp version 2.1.1
c Reading from p28.cnf
c Solving...
s SATISFIABLE

c Models        : 1+    
c Time          : 1.008s (Solving: 0.20s 1st Model: 0.20s Unsat: 0.00s)
c CPU Time      : 1.000s
c Choices       : 12251
c Conflicts     : 946
c Restarts      : 2      (Average: 473.00 Last: 223)

c Variables     : 230178 (Eliminated: 72205 Frozen:    0)
c Constraints   : 262952 (Binary: 64.8% Ternary: 33.8% Other:  1.3%)
c Lemmas        : 946    (Binary:  0.4% Ternary:  1.4% Other: 98.2%)
c   Conflict    : 946    (Average Length: 102.4) 
c   Loop        : 0      (Average Length: 0.0) 
c   Other       : 0      (Average Length: 0.0)
c   Deleted     : 0     
